(declare-fun temp987_1 () (_ BitVec 64))
(declare-fun var68976 () (_ BitVec 64))
(declare-fun temp987_2 () (_ BitVec 64))
(declare-fun temp987_3 () (_ BitVec 64))
(declare-fun temp987_4 () (_ BitVec 64))
(declare-fun ARGNAME_w_ih_NAMEEND_DIMSIZE
             ()
             (Array (_ BitVec 64) (_ BitVec 64)))
(declare-fun temp987_5 () (_ BitVec 64))
(declare-fun temp987_6 () (_ BitVec 64))
(declare-fun temp987_7 () (_ BitVec 64))
(declare-fun temp987_8 () (_ BitVec 64))
(declare-fun temp987_9 () (_ BitVec 64))
(declare-fun temp987_10 () (_ BitVec 64))
(declare-fun temp987_11 () (_ BitVec 64))
(declare-fun temp987_12 () (_ BitVec 64))
(declare-fun temp987_13 () (_ BitVec 64))
(declare-fun temp987_14 () (_ BitVec 64))
(declare-fun temp987_15 () (_ BitVec 64))
(declare-fun temp987_16 () (_ BitVec 64))
(declare-fun temp987_17 () (_ BitVec 64))
(declare-fun temp987_18 () (_ BitVec 64))
(declare-fun temp987_19 () (_ BitVec 64))
(declare-fun temp987_20 () (_ BitVec 64))
(declare-fun temp987_21 () (_ BitVec 64))
(declare-fun temp987_22 () (_ BitVec 64))
(declare-fun var77378 () (_ BitVec 64))
(declare-fun temp987_23 () (_ BitVec 64))
(declare-fun temp987_24 () (_ BitVec 64))
(declare-fun temp987_25 () (_ BitVec 64))
(declare-fun ARGNAME_input_NAMEEND_DIMSIZE
             ()
             (Array (_ BitVec 64) (_ BitVec 64)))
(declare-fun temp987_26 () (_ BitVec 64))
(declare-fun temp987_27 () (_ BitVec 64))
(declare-fun temp987_28 () (_ BitVec 64))
(declare-fun temp987_29 () (_ BitVec 64))
(declare-fun temp987_30 () (_ BitVec 64))
(declare-fun temp987_31 () (_ BitVec 64))
(declare-fun temp987_32 () (_ BitVec 64))
(declare-fun temp987_33 () (_ BitVec 64))
(declare-fun temp987_34 () (_ BitVec 64))
(declare-fun temp987_35 () (_ BitVec 64))
(declare-fun temp987_36 () (_ BitVec 64))
(declare-fun temp987_37 () (_ BitVec 64))
(declare-fun temp987_38 () (_ BitVec 64))
(declare-fun temp987_39 () (_ BitVec 64))
(declare-fun temp987_40 () (_ BitVec 64))
(declare-fun temp987_41 () (_ BitVec 64))
(declare-fun temp987_42 () (_ BitVec 64))
(declare-fun temp987_43 () (_ BitVec 64))
(declare-fun temp987_44 () (_ BitVec 64))
(declare-fun temp987_45 () (_ BitVec 64))
(declare-fun var404256 () (_ BitVec 64))
(declare-fun k!0 () Bool)
(declare-fun ARGNAME_w_ih_NAMEEND_DIM () (_ BitVec 64))
(declare-fun k!1 () (_ BitVec 64))
(declare-fun k!2 () (_ BitVec 64))
(declare-fun k!3 () Bool)
(declare-fun k!4 () Bool)
(declare-fun ARGNAME_input_NAMEEND_DIM () (_ BitVec 64))
(declare-fun temp987_46 () (_ BitVec 64))
(declare-fun temp987_47 () (_ BitVec 64))
(declare-fun temp987_48 () (_ BitVec 64))
(declare-fun ARGNAME_w_hh_NAMEEND_DIMSIZE
             ()
             (Array (_ BitVec 64) (_ BitVec 64)))
(declare-fun temp987_49 () (_ BitVec 64))
(declare-fun temp987_50 () (_ BitVec 64))
(declare-fun temp987_51 () (_ BitVec 64))
(declare-fun temp987_52 () (_ BitVec 64))
(declare-fun temp987_53 () (_ BitVec 64))
(declare-fun temp987_54 () (_ BitVec 64))
(declare-fun temp987_55 () (_ BitVec 64))
(declare-fun temp987_56 () (_ BitVec 64))
(declare-fun temp987_57 () (_ BitVec 64))
(declare-fun temp987_58 () (_ BitVec 64))
(declare-fun temp987_59 () (_ BitVec 64))
(declare-fun temp987_60 () (_ BitVec 64))
(declare-fun temp987_61 () (_ BitVec 64))
(declare-fun temp987_62 () (_ BitVec 64))
(declare-fun temp987_63 () (_ BitVec 64))
(declare-fun temp987_64 () (_ BitVec 64))
(declare-fun temp987_65 () (_ BitVec 64))
(declare-fun ARGNAME_w_hh_NAMEEND_DIM () (_ BitVec 64))
(declare-fun temp987_66 () (_ BitVec 64))
(declare-fun temp987_67 () (_ BitVec 64))
(declare-fun var77383 () (_ BitVec 64))
(declare-fun temp987_68 () (_ BitVec 64))
(declare-fun temp987_69 () (_ BitVec 64))
(declare-fun temp987_70 () (_ BitVec 64))
(declare-fun temp987_71 () (_ BitVec 64))
(declare-fun temp987_72 () (_ BitVec 64))
(declare-fun ARGNAME_hx_NAMEEND_DIMSIZE () (Array (_ BitVec 64) (_ BitVec 64)))
(declare-fun temp987_73 () (_ BitVec 64))
(declare-fun temp987_74 () (_ BitVec 64))
(declare-fun temp987_75 () (_ BitVec 64))
(declare-fun temp987_76 () (_ BitVec 64))
(declare-fun temp987_77 () (_ BitVec 64))
(declare-fun temp987_78 () (_ BitVec 64))
(declare-fun temp987_79 () (_ BitVec 64))
(declare-fun temp987_80 () (_ BitVec 64))
(declare-fun temp987_81 () (_ BitVec 64))
(declare-fun temp987_82 () (_ BitVec 64))
(declare-fun temp987_83 () (_ BitVec 64))
(declare-fun temp987_84 () (_ BitVec 64))
(declare-fun temp987_85 () (_ BitVec 64))
(declare-fun temp987_86 () (_ BitVec 64))
(declare-fun temp987_87 () (_ BitVec 64))
(declare-fun temp987_88 () (_ BitVec 64))
(declare-fun temp987_89 () (_ BitVec 64))
(declare-fun temp987_90 () (_ BitVec 64))
(declare-fun temp987_91 () (_ BitVec 64))
(declare-fun ARGNAME_hx_NAMEEND_DIM () (_ BitVec 64))
(declare-fun var666568 () (_ BitVec 64))
(declare-fun temp987_92 () (_ BitVec 64))
(declare-fun temp987_93 () (_ BitVec 64))
(declare-fun temp987_94 () (_ BitVec 64))
(declare-fun temp987_95 () (_ BitVec 64))
(declare-fun temp987_96 () (_ BitVec 64))
(declare-fun var666637 () (_ BitVec 64))
(declare-fun temp987_97 () (_ BitVec 64))
(declare-fun temp987_99 () (_ BitVec 64))
(declare-fun temp987_98 () (_ BitVec 64))
(declare-fun temp987_100 () (_ BitVec 64))
(declare-fun var1514936 () (_ BitVec 64))
(declare-fun temp987_101 () (_ BitVec 64))
(assert (= temp987_1 #x0000000000000001))
(assert (= var68976 temp987_1))
(assert (= temp987_2 #x0000000000000000))
(assert (= temp987_3 temp987_2))
(assert (= temp987_4 (select ARGNAME_w_ih_NAMEEND_DIMSIZE temp987_3)))
(assert (= temp987_5 #x0000000000000001))
(assert (= temp987_6 temp987_5))
(assert (= temp987_7 (select ARGNAME_w_ih_NAMEEND_DIMSIZE temp987_6)))
(assert (= temp987_8 #x0000000000000002))
(assert (= temp987_9 temp987_8))
(assert (= temp987_10 (select ARGNAME_w_ih_NAMEEND_DIMSIZE temp987_9)))
(assert (= temp987_11 #x0000000000000003))
(assert (= temp987_12 temp987_11))
(assert (= temp987_13 (select ARGNAME_w_ih_NAMEEND_DIMSIZE temp987_12)))
(assert (= temp987_14 #x0000000000000004))
(assert (= temp987_15 temp987_14))
(assert (= temp987_16 (select ARGNAME_w_ih_NAMEEND_DIMSIZE temp987_15)))
(assert (= temp987_17 #x0000000000000005))
(assert (= temp987_18 temp987_17))
(assert (= temp987_19 (select ARGNAME_w_ih_NAMEEND_DIMSIZE temp987_18)))
(assert (= temp987_20 #x0000000000000000))
(assert (= temp987_21
   (ite (bvslt var68976 temp987_20)
        (bvadd ARGNAME_w_ih_NAMEEND_DIM var68976)
        var68976)))
(assert (= temp987_22 (select ARGNAME_w_ih_NAMEEND_DIMSIZE temp987_21)))
(assert (= var77378 temp987_22))
(assert (bvslt (ite (bvslt var68976 temp987_20)
            (bvadd ARGNAME_w_ih_NAMEEND_DIM var68976)
            var68976)
       ARGNAME_w_ih_NAMEEND_DIM))
(assert (= temp987_23 #x0000000000000000))
(assert (= temp987_24 temp987_23))
(assert (= temp987_25 (select ARGNAME_input_NAMEEND_DIMSIZE temp987_24)))
(assert (= temp987_26 #x0000000000000001))
(assert (= temp987_27 temp987_26))
(assert (= temp987_28 (select ARGNAME_input_NAMEEND_DIMSIZE temp987_27)))
(assert (= temp987_29 #x0000000000000002))
(assert (= temp987_30 temp987_29))
(assert (= temp987_31 (select ARGNAME_input_NAMEEND_DIMSIZE temp987_30)))
(assert (= temp987_32 #x0000000000000003))
(assert (= temp987_33 temp987_32))
(assert (= temp987_34 (select ARGNAME_input_NAMEEND_DIMSIZE temp987_33)))
(assert (= temp987_35 #x0000000000000004))
(assert (= temp987_36 temp987_35))
(assert (= temp987_37 (select ARGNAME_input_NAMEEND_DIMSIZE temp987_36)))
(assert (= temp987_38 #x0000000000000005))
(assert (= temp987_39 temp987_38))
(assert (= temp987_40 (select ARGNAME_input_NAMEEND_DIMSIZE temp987_39)))
(assert (= temp987_41 #x0000000000000001))
(assert (= temp987_42 temp987_41))
(assert (= temp987_43 (select ARGNAME_input_NAMEEND_DIMSIZE temp987_42)))
(assert (bvsgt ARGNAME_input_NAMEEND_DIM temp987_41))
(assert (bvsge temp987_41 (bvneg ARGNAME_input_NAMEEND_DIM)))
(assert (= temp987_44 var77378))
(assert (= var404256
   (ite (= temp987_43 temp987_44) #x0000000000000001 #x0000000000000000)))
(assert (= temp987_45 #x0000000000000001))
(assert (= var404256 temp987_45))
(assert (= temp987_46 #x0000000000000001))
(assert (= var68976 temp987_46))
(assert (= temp987_47 #x0000000000000000))
(assert (= temp987_48 temp987_47))
(assert (= temp987_49 (select ARGNAME_w_hh_NAMEEND_DIMSIZE temp987_48)))
(assert (= temp987_50 #x0000000000000001))
(assert (= temp987_51 temp987_50))
(assert (= temp987_52 (select ARGNAME_w_hh_NAMEEND_DIMSIZE temp987_51)))
(assert (= temp987_53 #x0000000000000002))
(assert (= temp987_54 temp987_53))
(assert (= temp987_55 (select ARGNAME_w_hh_NAMEEND_DIMSIZE temp987_54)))
(assert (= temp987_56 #x0000000000000003))
(assert (= temp987_57 temp987_56))
(assert (= temp987_58 (select ARGNAME_w_hh_NAMEEND_DIMSIZE temp987_57)))
(assert (= temp987_59 #x0000000000000004))
(assert (= temp987_60 temp987_59))
(assert (= temp987_61 (select ARGNAME_w_hh_NAMEEND_DIMSIZE temp987_60)))
(assert (= temp987_62 #x0000000000000005))
(assert (= temp987_63 temp987_62))
(assert (= temp987_64 (select ARGNAME_w_hh_NAMEEND_DIMSIZE temp987_63)))
(assert (= temp987_65 #x0000000000000000))
(assert (= temp987_66
   (ite (bvslt var68976 temp987_65)
        (bvadd ARGNAME_w_hh_NAMEEND_DIM var68976)
        var68976)))
(assert (= temp987_67 (select ARGNAME_w_hh_NAMEEND_DIMSIZE temp987_66)))
(assert (= var77383 temp987_67))
(assert (bvslt (ite (bvslt var68976 temp987_65)
            (bvadd ARGNAME_w_hh_NAMEEND_DIM var68976)
            var68976)
       ARGNAME_w_hh_NAMEEND_DIM))
(assert (= temp987_68 #x0000000000000000))
(assert (= temp987_69 temp987_68))
(assert (= temp987_70 (select ARGNAME_input_NAMEEND_DIMSIZE temp987_69)))
(assert (bvsgt ARGNAME_input_NAMEEND_DIM temp987_68))
(assert (bvsge temp987_68 (bvneg ARGNAME_input_NAMEEND_DIM)))
(assert (= temp987_71 #x0000000000000000))
(assert (= temp987_72 temp987_71))
(assert (= temp987_73 (select ARGNAME_hx_NAMEEND_DIMSIZE temp987_72)))
(assert (= temp987_74 #x0000000000000001))
(assert (= temp987_75 temp987_74))
(assert (= temp987_76 (select ARGNAME_hx_NAMEEND_DIMSIZE temp987_75)))
(assert (= temp987_77 #x0000000000000002))
(assert (= temp987_78 temp987_77))
(assert (= temp987_79 (select ARGNAME_hx_NAMEEND_DIMSIZE temp987_78)))
(assert (= temp987_80 #x0000000000000003))
(assert (= temp987_81 temp987_80))
(assert (= temp987_82 (select ARGNAME_hx_NAMEEND_DIMSIZE temp987_81)))
(assert (= temp987_83 #x0000000000000004))
(assert (= temp987_84 temp987_83))
(assert (= temp987_85 (select ARGNAME_hx_NAMEEND_DIMSIZE temp987_84)))
(assert (= temp987_86 #x0000000000000005))
(assert (= temp987_87 temp987_86))
(assert (= temp987_88 (select ARGNAME_hx_NAMEEND_DIMSIZE temp987_87)))
(assert (= temp987_89 #x0000000000000000))
(assert (= temp987_90 temp987_89))
(assert (= temp987_91 (select ARGNAME_hx_NAMEEND_DIMSIZE temp987_90)))
(assert (bvsgt ARGNAME_hx_NAMEEND_DIM temp987_89))
(assert (bvsge temp987_89 (bvneg ARGNAME_hx_NAMEEND_DIM)))
(assert (= var666568
   (ite (= temp987_70 temp987_91) #x0000000000000001 #x0000000000000000)))
(assert (= temp987_92 #x0000000000000001))
(assert (= var666568 temp987_92))
(assert (= temp987_93 #x0000000000000001))
(assert (= temp987_94 temp987_93))
(assert (= temp987_95 (select ARGNAME_hx_NAMEEND_DIMSIZE temp987_94)))
(assert (bvsgt ARGNAME_hx_NAMEEND_DIM temp987_93))
(assert (bvsge temp987_93 (bvneg ARGNAME_hx_NAMEEND_DIM)))
(assert (= temp987_96 var77383))
(assert (= var666637
   (ite (= temp987_95 temp987_96) #x0000000000000001 #x0000000000000000)))
(assert (= temp987_97 #x0000000000000001))
(assert (= var666637 temp987_97))
(assert (= temp987_99 #x0000000000000000))
(assert (= temp987_98 temp987_99))
(assert (= temp987_100 #x0000000000000000))
(assert (= var1514936 temp987_100))
(assert (= temp987_101 #x0000000000000000))
(assert (= var1514936 temp987_101))
(model-add temp987_1 () (_ BitVec 64) #x0000000000000001)
(model-add var68976 () (_ BitVec 64) #x0000000000000001)
(model-add temp987_2 () (_ BitVec 64) #x0000000000000000)
(model-add temp987_3 () (_ BitVec 64) #x0000000000000000)
(model-add temp987_4
           ()
           (_ BitVec 64)
           (select ARGNAME_w_ih_NAMEEND_DIMSIZE #x0000000000000000))
(model-add temp987_5 () (_ BitVec 64) #x0000000000000001)
(model-add temp987_6 () (_ BitVec 64) #x0000000000000001)
(model-add temp987_7
           ()
           (_ BitVec 64)
           (select ARGNAME_w_ih_NAMEEND_DIMSIZE #x0000000000000001))
(model-add temp987_8 () (_ BitVec 64) #x0000000000000002)
(model-add temp987_9 () (_ BitVec 64) #x0000000000000002)
(model-add temp987_10
           ()
           (_ BitVec 64)
           (select ARGNAME_w_ih_NAMEEND_DIMSIZE #x0000000000000002))
(model-add temp987_11 () (_ BitVec 64) #x0000000000000003)
(model-add temp987_12 () (_ BitVec 64) #x0000000000000003)
(model-add temp987_13
           ()
           (_ BitVec 64)
           (select ARGNAME_w_ih_NAMEEND_DIMSIZE #x0000000000000003))
(model-add temp987_14 () (_ BitVec 64) #x0000000000000004)
(model-add temp987_15 () (_ BitVec 64) #x0000000000000004)
(model-add temp987_16
           ()
           (_ BitVec 64)
           (select ARGNAME_w_ih_NAMEEND_DIMSIZE #x0000000000000004))
(model-add temp987_17 () (_ BitVec 64) #x0000000000000005)
(model-add temp987_18 () (_ BitVec 64) #x0000000000000005)
(model-add temp987_19
           ()
           (_ BitVec 64)
           (select ARGNAME_w_ih_NAMEEND_DIMSIZE #x0000000000000005))
(model-add temp987_20 () (_ BitVec 64) #x0000000000000000)
(model-add temp987_21 () (_ BitVec 64) #x0000000000000001)
(model-add temp987_22
           ()
           (_ BitVec 64)
           (select ARGNAME_w_ih_NAMEEND_DIMSIZE #x0000000000000001))
(model-add var77378
           ()
           (_ BitVec 64)
           (select ARGNAME_w_ih_NAMEEND_DIMSIZE #x0000000000000001))
(model-add temp987_23 () (_ BitVec 64) #x0000000000000000)
(model-add temp987_24 () (_ BitVec 64) #x0000000000000000)
(model-add temp987_25
           ()
           (_ BitVec 64)
           (select ARGNAME_input_NAMEEND_DIMSIZE #x0000000000000000))
(model-add temp987_26 () (_ BitVec 64) #x0000000000000001)
(model-add temp987_27 () (_ BitVec 64) #x0000000000000001)
(model-add temp987_28
           ()
           (_ BitVec 64)
           (select ARGNAME_input_NAMEEND_DIMSIZE #x0000000000000001))
(model-add temp987_29 () (_ BitVec 64) #x0000000000000002)
(model-add temp987_30 () (_ BitVec 64) #x0000000000000002)
(model-add temp987_31
           ()
           (_ BitVec 64)
           (select ARGNAME_input_NAMEEND_DIMSIZE #x0000000000000002))
(model-add temp987_32 () (_ BitVec 64) #x0000000000000003)
(model-add temp987_33 () (_ BitVec 64) #x0000000000000003)
(model-add temp987_34
           ()
           (_ BitVec 64)
           (select ARGNAME_input_NAMEEND_DIMSIZE #x0000000000000003))
(model-add temp987_35 () (_ BitVec 64) #x0000000000000004)
(model-add temp987_36 () (_ BitVec 64) #x0000000000000004)
(model-add temp987_37
           ()
           (_ BitVec 64)
           (select ARGNAME_input_NAMEEND_DIMSIZE #x0000000000000004))
(model-add temp987_38 () (_ BitVec 64) #x0000000000000005)
(model-add temp987_39 () (_ BitVec 64) #x0000000000000005)
(model-add temp987_40
           ()
           (_ BitVec 64)
           (select ARGNAME_input_NAMEEND_DIMSIZE #x0000000000000005))
(model-add temp987_41 () (_ BitVec 64) #x0000000000000001)
(model-add temp987_42 () (_ BitVec 64) #x0000000000000001)
(model-add temp987_43
           ()
           (_ BitVec 64)
           (select ARGNAME_input_NAMEEND_DIMSIZE #x0000000000000001))
(model-add temp987_44
           ()
           (_ BitVec 64)
           (select ARGNAME_w_ih_NAMEEND_DIMSIZE #x0000000000000001))
(model-add temp987_45 () (_ BitVec 64) #x0000000000000001)
(model-add var404256 () (_ BitVec 64) #x0000000000000001)
(model-del k!0)
(model-add ARGNAME_w_ih_NAMEEND_DIM
           ()
           (_ BitVec 64)
           (ite (or k!0 (= #x0000000000000001 #x7fffffffffffffff))
                #x0000000000000001
                (bvadd #x0000000000000001 #x0000000000000001)))
(model-del k!1)
(model-add ARGNAME_input_NAMEEND_DIMSIZE
           ()
           (Array (_ BitVec 64) (_ BitVec 64))
           ((as const (Array (_ BitVec 64) (_ BitVec 64))) k!1))
(model-del k!2)
(model-add ARGNAME_w_ih_NAMEEND_DIMSIZE
           ()
           (Array (_ BitVec 64) (_ BitVec 64))
           ((as const (Array (_ BitVec 64) (_ BitVec 64))) k!2))
(model-del k!3)
(model-add k!0 () Bool (not k!3))
(model-del k!4)
(model-add k!1 () (_ BitVec 64) (ite k!4 k!2 (bvnot k!2)))




